
Gurobi 9.1.1 (mac64, gurobi_cl) logging started Mon Feb 22 14:03:09 2021

Academic license - for non-commercial use only - expires 2021-04-06
Using license file /Users/agnese/gurobi.lic
Set parameter LogFile to value gurobi.log

Gurobi Optimizer version 9.1.1 build v9.1.1rc0 (mac64)
Copyright (c) 2020, Gurobi Optimization, LLC

Read LP format model from file /Users/agnese/Documents/KTH-Work/GitHub_repositories/KTH-dESA/GLUCOSE/results/Food2060/GLUCOSE_Food2060_modified.lp
Reading time = 0.45 seconds
cost: 55289 rows, 45900 columns, 520298 nonzeros
Thread count: 2 physical cores, 4 logical processors, using up to 4 threads
Optimize a model with 55289 rows, 45900 columns and 520298 nonzeros
Model fingerprint: 0xeed1a95d
Coefficient statistics:
  Matrix range     [2e-08, 6e+03]
  Objective range  [7e-08, 4e+11]
  Bounds range     [0e+00, 0e+00]
  RHS range        [1e-03, 1e+06]
Warning: Model contains large objective coefficients
         Consider reformulating model or setting NumericFocus parameter
         to avoid numerical issues.

Concurrent LP optimizer: dual simplex and barrier
Showing barrier log only...

Presolve removed 29812 rows and 27980 columns
Presolve time: 0.23s
Presolved: 25477 rows, 18042 columns, 355711 nonzeros

Ordering time: 1.36s

Barrier statistics:
 AA' NZ     : 1.302e+06
 Factor NZ  : 8.985e+06 (roughly 90 MBytes of memory)
 Factor Ops : 8.613e+09 (less than 1 second per iteration)
 Threads    : 1

                  Objective                Residual
Iter       Primal          Dual         Primal    Dual     Compl     Time
   0   5.03243529e+20 -3.34006636e+17  9.31e+08 2.08e+12  3.46e+16     3s
   1   2.66860332e+20 -4.79475745e+17  9.16e+08 1.98e+12  3.38e+16     3s
   2   3.80867999e+20 -1.42990887e+18  8.48e+08 1.39e+12  3.35e+16     4s
   3   1.57620582e+20 -3.67754751e+18  2.39e+08 3.97e+11  1.36e+16     5s
   4   3.89194825e+19 -3.74038356e+18  5.77e+07 3.20e+10  3.74e+15     6s
   5   7.50808116e+18 -2.93799785e+18  1.11e+07 3.84e+09  7.58e+14     7s
   6   1.39285880e+18 -1.70515835e+18  2.09e+06 4.47e+08  1.61e+14     8s
   7   1.22980208e+18 -1.46706333e+18  1.85e+06 3.61e+08  1.40e+14     8s
   8   3.87924471e+17 -8.39820743e+17  5.46e+05 8.93e+07  4.86e+13     9s
   9   6.77902491e+16 -2.22213637e+17  9.42e+04 7.74e+06  9.58e+12    10s
  10   3.07350637e+16 -1.07206880e+17  4.38e+04 3.31e+06  4.39e+12    11s
  11   9.96103807e+15 -4.95105533e+16  1.41e+04 1.37e+06  1.72e+12    12s
  12   3.85693890e+15 -1.31011075e+16  5.39e+03 2.79e+05  5.31e+11    13s
  13   9.86824409e+14 -3.95133596e+15  1.33e+03 6.59e+04  1.43e+11    14s
  14   7.19117866e+14 -2.43735729e+15  1.00e+03 3.83e+04  9.47e+10    15s
  15   6.47178337e+13 -4.36059948e+14  5.18e+01 2.11e+03  1.19e+10    16s
  16   9.80657994e+12 -8.66201987e+13  1.56e+00 2.04e+02  2.13e+09    18s
  17   1.01100826e+12 -1.75840834e+13  1.45e-01 3.38e+01  3.90e+08    19s
  18   2.72207210e+10 -5.12939586e+11  2.23e-08 8.82e-01  1.12e+07    20s
  19   3.87235363e+09 -3.96612337e+10  1.49e-08 3.56e-02  9.04e+05    21s
  20   4.38250596e+08 -4.46279961e+09  9.74e-09 2.44e-03  1.02e+05    22s
  21   6.58299620e+07 -2.51040747e+08  3.11e-09 4.88e-04  6.58e+03    23s
  22   3.83304525e+06 -1.40328237e+07  2.47e-09 4.88e-04  3.71e+02    25s
  23   5.83348304e+05 -7.22494189e+05  4.31e-09 2.44e-04  2.71e+01    26s
  24   3.71072161e+05  4.54034388e+04  2.46e-09 7.32e-04  6.76e+00    27s
  25   3.27043088e+05  1.63702794e+05  1.51e-09 2.44e-04  3.39e+00    28s
  26   2.76905941e+05  2.36320612e+05  1.82e-09 2.44e-04  8.43e-01    30s
  27   2.63758990e+05  2.51394619e+05  2.18e-09 2.44e-04  2.57e-01    31s
  28   2.60721843e+05  2.54531723e+05  9.91e-10 2.44e-04  1.29e-01    32s
  29   2.58169593e+05  2.56799491e+05  2.01e-09 4.88e-04  2.85e-02    33s
  30   2.57737460e+05  2.57315481e+05  9.64e-09 4.88e-04  8.85e-03    34s
  31   2.57563456e+05  2.57418818e+05  2.27e-08 2.44e-04  3.15e-03    36s
  32   2.57496215e+05  2.57462338e+05  2.87e-09 2.44e-04  8.40e-04    38s
  33   2.57482166e+05  2.57479173e+05  9.26e-09 2.44e-04  8.00e-05    40s
  34   2.57480353e+05  2.57480030e+05  4.91e-08 2.44e-04  6.79e-06    41s
  35   2.57480251e+05  2.57480123e+05  1.53e-08 2.44e-04  2.64e-06    42s
  36   2.57480207e+05  2.57480198e+05  4.86e-09 2.44e-04  2.06e-07    44s
  37   2.57480204e+05  2.57480200e+05  8.62e-07 2.44e-04  9.55e-08    45s
  38   2.57480203e+05  2.57480201e+05  4.72e-07 2.44e-04  4.36e-08    45s
  39   2.57480201e+05  2.57480201e+05  1.70e-07 4.88e-04  4.43e-09    46s

Barrier solved model in 39 iterations and 46.28 seconds
Optimal objective 2.57480201e+05

Crossover log...

    6574 DPushes remaining with DInf 0.0000000e+00                46s
       0 DPushes remaining with DInf 0.0000000e+00                47s

    4388 PPushes remaining with PInf 3.6496384e-04                47s
       0 PPushes remaining with PInf 0.0000000e+00                47s

  Push phase complete: Pinf 0.0000000e+00, Dinf 8.4527761e+01     47s

Iteration    Objective       Primal Inf.    Dual Inf.      Time
    8384    2.5748020e+05   0.000000e+00   8.452776e+01     47s
Extra simplex iterations after uncrush: 13
    8649    2.5748020e+05   0.000000e+00   0.000000e+00     47s

Solved with barrier
Solved in 8649 iterations and 47.35 seconds
Optimal objective  2.574802012e+05

No IIS available for current model

